c Random 3-CNF over 150 variables and 30 clauses
c Generated with `cnfgen`
c (C) 2012-2018 Massimo Lauria <lauria.massimo@gmail.com>
c https://massimolauria.github.io/cnfgen
c
c COMMAND LINE: cnfgen -o 3/3_0.2000000000_6.cnf randkcnf 3 150 30
c
p cnf 150 30
-1 -40 116 0
13 -26 40 0
-55 -130 -134 0
37 -72 130 0
52 97 127 0
-21 -42 -62 0
10 -129 -150 0
2 60 -123 0
-7 -44 -109 0
122 -148 149 0
36 113 136 0
16 -73 128 0
-52 -84 -138 0
53 87 101 0
44 -69 -94 0
10 -34 76 0
-32 -64 121 0
10 -120 -131 0
80 -85 136 0
-44 64 113 0
-68 -77 122 0
-23 51 -91 0
-7 -108 147 0
-121 -122 139 0
-42 54 -69 0
-7 71 95 0
-74 91 -141 0
5 -10 44 0
-28 -97 124 0
33 64 -142 0
